flow=[(1,6,2)(5,1,3)(5,6,13)(5,8,4)(5,10,1)(5,11,10)(5,12,4)(5,13,1)(6,1,6)(6,10,1)(6,11,11)(9,6,1)(10,4,1)(10,6,2)(10,9,2)(11,5,3)(11,6,4)(11,8,1)(11,10,2)(12,1,2)(12,5,7)(12,6,2)(12,11,3)(12,13,1)];
